DIMENSION: 12
EDGE_WEIGHT_TYPE: EXPLICIT
EDGE_WEIGHT_FORMAT: FULL_MATRIX
EDGE_WEIGHT_SECTION:
32767 32767 32767 23 17 32767 32767 71 53 64 32767 1 
32767 32767 32767 55 25 10 32767 66 32767 48 32767 32767 
32767 32767 32767 32767 32767 1 32767 32767 32767 67 32767 32767 
23 55 32767 32767 32767 20 63 1 98 32767 32767 32767 
17 25 32767 32767 32767 32767 25 40 32767 37 44 8 
32767 10 1 20 32767 32767 32767 20 19 32767 83 55 
32767 32767 32767 63 25 32767 32767 32767 32767 32767 62 24 
71 66 32767 1 40 20 32767 32767 32767 76 89 32767 
53 32767 32767 98 32767 19 32767 32767 32767 13 97 15 
64 48 67 32767 37 32767 32767 76 13 32767 28 56 
32767 32767 32767 32767 44 83 62 89 97 28 32767 60 
1 32767 32767 32767 8 55 24 32767 15 56 60 32767 
EOF